experiment/data/lkh-res/Vrp-Set-D-n401/Vrp-Set-D-n401-lkh/0.lkh1.vrp
NAME : 0
COMMENT : CVRP Instance
TYPE : CVRP
DIMENSION : 401
EDGE_WEIGHT_TYPE : EUC_2D
CAPACITY : 100
NODE_COORD_SECTION
1	85500	47700
2	4400	51500
3	1300	3600
4	3800	6700
5	6200	19700
6	9700	17700
7	14100	25800
8	6500	5500
9	4900	2100
10	6200	11100
11	12200	35100
12	13900	34600
13	5300	81900
14	2800	6200
15	4500	18900
16	13200	29300
17	3000	7700
18	19400	35400
19	4900	46300
20	6700	8100
21	8400	7000
22	9900	30000
23	7900	18200
24	5000	9100
25	85500	53000
26	2600	6800
27	4400	11500
28	4400	4600
29	7100	34300
30	10400	29900
31	84200	45900
32	3000	10200
33	5400	22400
34	9200	17000
35	1600	2500
36	3800	9900
37	3400	17000
38	4400	38600
39	7000	11100
40	4500	14200
41	7900	18100
42	1700	4900
43	4000	48600
44	8500	34300
45	15500	30200
46	14200	28300
47	20800	30500
48	7800	11100
49	9800	26800
50	18400	27500
51	6500	11700
52	16900	33300
53	7700	11800
54	6000	6100
55	5100	6300
56	18300	22100
57	2900	8600
58	2600	4600
59	4900	9000
60	2400	5400
61	9800	15800
62	4400	5600
63	9300	19000
64	24000	19800
65	9700	28900
66	68100	29100
67	9600	20600
68	4800	14200
69	66900	45800
70	5000	6700
71	8000	10300
72	5100	11300
73	10700	29800
74	2200	2300
75	37900	28800
76	9800	19200
77	5100	6900
78	1300	5800
79	2600	9400
80	7300	10700
81	5100	44800
82	2300	7500
83	4700	10200
84	81400	44700
85	1200	1900
86	4300	8500
87	88400	50000
88	13300	25300
89	15700	31600
90	7700	5400
91	3200	19500
92	3500	15700
93	2200	6900
94	88000	46600
95	23800	29600
96	90900	46000
97	1800	7900
98	6100	12900
99	25800	31500
100	5200	3600
101	4300	6300
102	5100	10600
103	5900	5500
104	8200	21000
105	2600	11900
106	6800	33200
107	3100	10300
108	7900	2900
109	83800	47800
110	83100	50900
111	3100	2500
112	7700	6300
113	6600	80600
114	3900	16300
115	2700	4000
116	8500	31900
117	10100	34200
118	4100	6500
119	2900	14900
120	7700	23300
121	8600	37600
122	5200	31000
123	6600	9400
124	29900	27300
125	5200	29800
126	9200	29800
127	5200	16300
128	10100	20100
129	7800	34800
130	13000	25300
131	4100	15500
132	15200	97500
133	2100	19700
134	7300	6200
135	3900	6300
136	88000	52900
137	3000	9500
138	4500	10600
139	15700	29800
140	7000	9600
141	10900	25500
142	3900	1700
143	6800	5900
144	5000	61600
145	8300	18600
146	1700	15900
147	5000	12400
148	12300	19700
149	6900	35400
150	12900	33600
151	4000	6900
152	9400	21000
153	20900	24400
154	87300	47500
155	5000	5800
156	8900	3700
157	16500	30500
158	11800	22800
159	17500	100000
160	8000	12900
161	8400	15700
162	24300	27800
163	7400	6300
164	2800	8100
165	9900	26600
166	16900	20600
167	6100	6700
168	87000	50700
169	14400	26000
170	2700	10900
171	87000	45100
172	3100	13800
173	5700	8800
174	10000	24800
175	17200	22000
176	11700	25700
177	13900	31800
178	14600	24100
179	6200	11000
180	5100	19800
181	11100	20500
182	7500	24000
183	16800	31200
184	1500	14400
185	7500	26900
186	7500	7300
187	4100	3300
188	5800	100
189	4100	9000
190	10200	37600
191	8400	40500
192	7000	11100
193	1200	5500
194	51200	39700
195	9600	38000
196	4700	2400
197	15900	25100
198	11500	27400
199	3500	46600
200	1100	7100
201	3900	19000
202	8300	25100
203	5100	11500
204	6600	8800
205	2900	5400
206	15900	30400
207	4000	5400
208	7700	10600
209	17500	99500
210	5900	0
211	1800	4800
212	5000	28400
213	12000	16900
214	28200	24300
215	16500	23600
216	13300	21300
217	5500	50600
218	7800	1900
219	3000	11900
220	6100	47300
221	5100	16900
222	6400	3600
223	5200	1800
224	84300	46200
225	6600	20900
226	51400	46000
227	1400	1700
228	6200	14500
229	28400	50300
230	8500	37200
231	2400	12500
232	1300	5600
233	2600	19000
234	82800	48800
235	6400	46400
236	4900	16000
237	3700	2400
238	10000	26700
239	2500	8600
240	7600	2100
241	13900	29300
242	5800	60100
243	15700	33800
244	1100	1600
245	13500	35500
246	5600	54600
247	6700	8500
248	9800	25400
249	28400	50200
250	4300	4600
251	6600	26400
252	4400	11500
253	7800	16200
254	14900	31800
255	14600	29400
256	6000	59500
257	17200	32500
258	11600	23300
259	14400	18500
260	4200	16200
261	4500	6500
262	15300	29000
263	84700	48700
264	7100	57100
265	7800	4600
266	3400	500
267	10100	20200
268	41900	37500
269	15900	30800
270	2500	7000
271	9900	36200
272	8500	19900
273	5900	58600
274	26900	48200
275	12900	34300
276	0	4600
277	17300	35400
278	4000	59300
279	2900	4300
280	7100	6600
281	6700	8600
282	2800	6700
283	5400	1700
284	100000	67600
285	15400	29300
286	20300	26400
287	3000	8300
288	25600	31200
289	3700	46400
290	5200	5900
291	28100	48800
292	7700	75200
293	2400	7500
294	10500	24400
295	14000	25400
296	3100	6100
297	26100	29300
298	8400	12400
299	800	3300
300	6200	14300
301	8100	6500
302	12900	28600
303	10600	32900
304	9000	30500
305	4200	5000
306	2300	3200
307	6600	33200
308	6100	8400
309	26100	27900
310	83300	51200
311	4900	5700
312	11200	39400
313	4400	7500
314	7600	18300
315	7400	43100
316	3600	7000
317	5400	28600
318	1900	9700
319	18800	26900
320	9100	36200
321	8000	100
322	5900	45600
323	2800	5600
324	11500	38700
325	40400	30900
326	5800	1100
327	22100	36500
328	3600	12300
329	7200	12100
330	7500	18500
331	21700	31800
332	4300	46400
333	79500	48800
334	10100	35800
335	7000	19200
336	6700	7500
337	16000	30000
338	2600	4500
339	1900	4000
340	7300	24700
341	8000	24100
342	9100	54800
343	2500	6900
344	15300	34800
345	6100	4000
346	4700	11500
347	2300	2800
348	13800	23400
349	7600	11000
350	12200	21900
351	17100	32100
352	88000	46900
353	9200	15100
354	8000	31900
355	7800	14600
356	3800	19700
357	8500	6600
358	10500	19800
359	15700	26900
360	86300	50300
361	15400	30800
362	14800	24900
363	5600	20900
364	4100	20100
365	2700	14100
366	25400	28600
367	1300	7000
368	7700	28900
369	13500	32300
370	4200	18900
371	83900	46500
372	7000	7600
373	4600	20300
374	8400	29300
375	4600	2600
376	6200	13400
377	18800	25300
378	11600	17800
379	8400	29300
380	83500	51600
381	9800	28300
382	83200	50400
383	6400	9400
384	2500	6600
385	5700	8800
386	6700	200
387	4100	6100
388	1900	11900
389	9100	51500
390	2300	5200
391	16200	30300
392	1600	3300
393	6100	32900
394	3600	44300
395	15400	31700
396	2700	44500
397	3300	400
398	7600	12800
399	1900	3400
400	1600	4900
401	2000	10300
DEMAND_SECTION
1	0
2	5
3	7
4	4
5	8
6	1
7	4
8	2
9	10
10	9
11	6
12	7
13	2
14	1
15	3
16	6
17	2
18	5
19	7
20	3
21	3
22	10
23	3
24	8
25	4
26	6
27	9
28	5
29	2
30	2
31	7
32	8
33	4
34	5
35	4
36	1
37	1
38	6
39	5
40	7
41	2
42	9
43	3
44	1
45	10
46	6
47	5
48	4
49	1
50	8
51	7
52	8
53	3
54	5
55	6
56	2
57	3
58	1
59	1
60	6
61	7
62	7
63	9
64	3
65	8
66	9
67	8
68	6
69	5
70	10
71	1
72	10
73	7
74	10
75	1
76	9
77	4
78	9
79	9
80	10
81	2
82	9
83	2
84	9
85	10
86	9
87	8
88	8
89	1
90	7
91	1
92	4
93	2
94	6
95	6
96	3
97	8
98	9
99	3
100	7
101	5
102	10
103	8
104	10
105	5
106	9
107	3
108	6
109	7
110	5
111	1
112	7
113	9
114	2
115	8
116	4
117	3
118	9
119	4
120	3
121	3
122	4
123	7
124	10
125	7
126	2
127	10
128	5
129	10
130	10
131	5
132	6
133	1
134	10
135	7
136	3
137	2
138	6
139	1
140	10
141	6
142	1
143	8
144	5
145	4
146	1
147	4
148	3
149	7
150	5
151	2
152	3
153	3
154	1
155	4
156	6
157	7
158	3
159	8
160	3
161	8
162	4
163	4
164	4
165	9
166	7
167	2
168	2
169	4
170	3
171	6
172	10
173	8
174	1
175	7
176	5
177	7
178	8
179	7
180	2
181	2
182	4
183	9
184	5
185	3
186	1
187	6
188	7
189	4
190	3
191	1
192	5
193	7
194	8
195	6
196	3
197	7
198	6
199	10
200	4
201	3
202	9
203	10
204	7
205	2
206	5
207	2
208	9
209	2
210	6
211	8
212	4
213	5
214	3
215	5
216	9
217	8
218	6
219	8
220	6
221	3
222	10
223	10
224	10
225	1
226	2
227	8
228	10
229	9
230	6
231	6
232	7
233	6
234	7
235	8
236	3
237	2
238	1
239	8
240	7
241	2
242	1
243	5
244	10
245	3
246	8
247	1
248	2
249	1
250	6
251	8
252	10
253	7
254	8
255	4
256	1
257	1
258	1
259	6
260	6
261	3
262	1
263	4
264	5
265	8
266	3
267	2
268	10
269	7
270	10
271	3
272	3
273	10
274	4
275	9
276	5
277	8
278	8
279	10
280	6
281	9
282	8
283	6
284	7
285	1
286	4
287	6
288	8
289	6
290	10
291	5
292	2
293	10
294	8
295	6
296	4
297	5
298	9
299	8
300	7
301	6
302	3
303	10
304	6
305	9
306	7
307	7
308	10
309	5
310	2
311	4
312	6
313	10
314	8
315	9
316	7
317	10
318	5
319	6
320	4
321	6
322	8
323	3
324	5
325	2
326	5
327	6
328	9
329	5
330	9
331	9
332	3
333	4
334	7
335	6
336	7
337	4
338	9
339	7
340	1
341	6
342	7
343	4
344	6
345	8
346	1
347	7
348	3
349	2
350	10
351	3
352	4
353	4
354	1
355	10
356	6
357	1
358	3
359	3
360	6
361	5
362	9
363	10
364	10
365	3
366	6
367	10
368	5
369	7
370	4
371	9
372	4
373	7
374	6
375	10
376	7
377	6
378	7
379	3
380	7
381	6
382	6
383	7
384	2
385	6
386	8
387	8
388	5
389	6
390	6
391	8
392	1
393	1
394	5
395	10
396	4
397	4
398	3
399	1
400	7
401	5
DEPOT_SECTION
1
-1
EOF
