experiment/data/lkh-res/Vrp-Set-D-n401/Vrp-Set-D-n401-lkh/0.lkh1.tour
NAME : 0.3979349.tour
COMMENT : Length = 3979349
COMMENT : Found by LKH-3 [Keld Helsgaun] Tue Apr  9 01:23:10 2024
TYPE : TOUR
DIMENSION : 423
TOUR_SECTION
1
117
44
29
106
307
393
122
125
317
212
251
185
368
374
379
126
30
73
361
269
351
257
415
95
319
197
362
295
88
130
7
169
46
262
285
45
206
391
157
412
214
48
349
80
123
383
173
385
308
20
247
281
204
140
208
64
420
298
53
39
192
10
179
102
138
27
252
346
72
203
147
419
71
24
59
189
86
17
270
82
293
164
287
57
239
79
137
32
107
36
83
407
291
274
389
217
2
43
220
235
322
19
332
289
199
396
394
81
315
191
422
66
321
386
210
188
397
266
142
9
223
283
326
218
240
108
156
421
41
221
131
92
119
146
184
365
172
231
388
105
219
328
40
68
300
228
410
52
243
303
116
354
304
22
65
381
49
165
238
198
302
16
241
255
139
337
47
417
249
229
342
246
264
273
256
242
278
144
292
113
13
132
209
159
284
136
25
418
267
128
335
5
180
373
364
356
15
370
201
91
133
233
37
114
260
236
127
253
378
413
153
216
181
358
76
63
145
23
314
330
272
67
350
215
377
286
162
408
372
336
77
70
261
101
118
135
387
62
311
155
290
54
280
301
357
414
186
167
55
207
58
338
339
399
392
3
299
276
400
42
211
390
60
205
323
14
296
4
404
371
194
268
99
288
297
366
309
124
325
84
31
224
403
154
352
94
171
96
87
168
360
380
310
110
382
263
423
69
327
245
11
334
271
320
129
149
38
230
121
195
190
324
312
226
333
234
409
313
151
316
282
384
26
343
93
232
193
78
367
200
97
318
401
170
405
56
175
148
6
34
161
355
376
98
51
329
398
160
353
61
213
259
166
75
416
178
348
258
158
152
104
225
363
33
120
341
182
340
202
248
174
294
141
176
359
50
406
331
183
89
395
254
177
369
150
275
12
344
277
18
109
402
90
265
345
100
187
28
250
305
103
8
143
134
163
112
21
411
222
196
375
237
111
74
227
244
85
35
347
306
115
279
-1
EOF
